This is Ipopt version 3.11.0, running with linear solver mumps.

Number of nonzeros in equality constraint Jacobian...:        4
Number of nonzeros in inequality constraint Jacobian.:        4
Number of nonzeros in Lagrangian Hessian.............:       10

Total number of variables............................:        4
                     variables with only lower bounds:        0
                variables with lower and upper bounds:        4
                     variables with only upper bounds:        0
Total number of equality constraints.................:        1
Total number of inequality constraints...............:        1
        inequality constraints with only lower bounds:        1
   inequality constraints with lower and upper bounds:        0
        inequality constraints with only upper bounds:        0

iter    objective    inf_pr   inf_du lg(mu)  ||d||  lg(rg) alpha_du alpha_pr  ls
   0 1.6109693e+001 1.12e+001 1.02e+000   0.0 0.00e+000    -  0.00e+000 0.00e+000   0
   1 1.7346108e+001 7.50e-001 2.37e+001  -0.3 7.22e-001    -  3.51e-001 1.00e+000f  1
   2 1.7922201e+001 7.70e-003 5.29e+000  -0.2 6.00e-002   2.0 9.96e-001 1.00e+000h  1
   3 1.7167308e+001 6.72e-002 1.66e+000  -0.8 1.37e+000    -  9.95e-001 6.98e-001f  1
   4 1.6989299e+001 1.02e-001 1.47e-001  -1.2 2.30e-001    -  9.92e-001 1.00e+000f  1
   5 1.6994402e+001 3.39e-002 1.19e-002  -2.3 8.69e-002    -  9.84e-001 1.00e+000h  1
   6 1.7013957e+001 2.20e-004 3.14e-004  -3.8 1.15e-002    -  9.99e-001 1.00e+000h  1
   7 1.7014017e+001 6.30e-007 1.31e-006  -9.7 3.43e-004    -  9.99e-001 9.99e-001h  1
   8 1.7014017e+001 5.54e-013 8.50e-013 -11.0 5.69e-007    -  1.00e+000 1.00e+000h  1

Number of Iterations....: 8

                                   (scaled)                 (unscaled)
Objective...............:  3.4028034280427242e+001   1.7014017140213621e+001
Dual infeasibility......:  8.5010828359312148e-013   4.2505414179656074e-013
Constraint violation....:  5.5422333389287814e-013   5.5422333389287814e-013
Complementarity.........:  1.1688338037729125e-011   5.8441690188645627e-012
Overall NLP error.......:  1.1688338037729125e-011   5.8441690188645627e-012


Number of objective function evaluations             = 9
Number of objective gradient evaluations             = 9
Number of equality constraint evaluations            = 9
Number of inequality constraint evaluations          = 9
Number of equality constraint Jacobian evaluations   = 9
Number of inequality constraint Jacobian evaluations = 9
Number of Lagrangian Hessian evaluations             = 8
Total CPU secs in IPOPT (w/o function evaluations)   =      0.016
Total CPU secs in NLP function evaluations           =      0.002

EXIT: Optimal Solution Found.
Exception of type: OPTION_INVALID in file "..\..\..\src\Algorithm\IpAlgBuilder.cpp" at line 343:
 Exception message: Selected linear solver MA57 not available.
Tried to obtain MA57 from shared library "libhsl..dll", but the following error occured:
loadLib error: Do not know how to handle shared libraries on this operating system

EXIT: Invalid option encountered.
Exception of type: OPTION_INVALID in file "..\..\..\src\Algorithm\IpAlgBuilder.cpp" at line 343:
 Exception message: Selected linear solver MA57 not available.
Tried to obtain MA57 from shared library "libhsl..dll", but the following error occured:
loadLib error: Do not know how to handle shared libraries on this operating system

EXIT: Invalid option encountered.
This is Ipopt version 3.11.0, running with linear solver mumps.

Number of nonzeros in equality constraint Jacobian...:        4
Number of nonzeros in inequality constraint Jacobian.:        4
Number of nonzeros in Lagrangian Hessian.............:       10

Total number of variables............................:        4
                     variables with only lower bounds:        0
                variables with lower and upper bounds:        4
                     variables with only upper bounds:        0
Total number of equality constraints.................:        1
Total number of inequality constraints...............:        1
        inequality constraints with only lower bounds:        1
   inequality constraints with lower and upper bounds:        0
        inequality constraints with only upper bounds:        0

iter    objective    inf_pr   inf_du lg(mu)  ||d||  lg(rg) alpha_du alpha_pr  ls
   0 1.6109693e+001 1.12e+001 1.02e+000   0.0 0.00e+000    -  0.00e+000 0.00e+000   0
   1 1.7346108e+001 7.50e-001 2.37e+001  -0.3 7.22e-001    -  3.51e-001 1.00e+000f  1
   2 1.7922201e+001 7.70e-003 5.29e+000  -0.2 6.00e-002   2.0 9.96e-001 1.00e+000h  1
   3 1.7167308e+001 6.72e-002 1.66e+000  -0.8 1.37e+000    -  9.95e-001 6.98e-001f  1
   4 1.6989299e+001 1.02e-001 1.47e-001  -1.2 2.30e-001    -  9.92e-001 1.00e+000f  1
   5 1.6994402e+001 3.39e-002 1.19e-002  -2.3 8.69e-002    -  9.84e-001 1.00e+000h  1
   6 1.7013957e+001 2.20e-004 3.14e-004  -3.8 1.15e-002    -  9.99e-001 1.00e+000h  1
   7 1.7014017e+001 6.30e-007 1.31e-006  -9.7 3.43e-004    -  9.99e-001 9.99e-001h  1
   8 1.7014017e+001 5.54e-013 8.50e-013 -11.0 5.69e-007    -  1.00e+000 1.00e+000h  1

Number of Iterations....: 8

                                   (scaled)                 (unscaled)
Objective...............:  3.4028034280427242e+001   1.7014017140213621e+001
Dual infeasibility......:  8.5010828359312148e-013   4.2505414179656074e-013
Constraint violation....:  5.5422333389287814e-013   5.5422333389287814e-013
Complementarity.........:  1.1688338037729125e-011   5.8441690188645627e-012
Overall NLP error.......:  1.1688338037729125e-011   5.8441690188645627e-012


Number of objective function evaluations             = 9
Number of objective gradient evaluations             = 9
Number of equality constraint evaluations            = 9
Number of inequality constraint evaluations          = 9
Number of equality constraint Jacobian evaluations   = 9
Number of inequality constraint Jacobian evaluations = 9
Number of Lagrangian Hessian evaluations             = 8
Total CPU secs in IPOPT (w/o function evaluations)   =      0.013
Total CPU secs in NLP function evaluations           =      0.003

EXIT: Optimal Solution Found.
This is Ipopt version 3.11.0, running with linear solver mumps.

Number of nonzeros in equality constraint Jacobian...:        4
Number of nonzeros in inequality constraint Jacobian.:        4
Number of nonzeros in Lagrangian Hessian.............:       10

Total number of variables............................:        4
                     variables with only lower bounds:        0
                variables with lower and upper bounds:        4
                     variables with only upper bounds:        0
Total number of equality constraints.................:        1
Total number of inequality constraints...............:        1
        inequality constraints with only lower bounds:        1
   inequality constraints with lower and upper bounds:        0
        inequality constraints with only upper bounds:        0

iter    objective    inf_pr   inf_du lg(mu)  ||d||  lg(rg) alpha_du alpha_pr  ls
   0 1.6109693e+001 1.12e+001 1.02e+000   0.0 0.00e+000    -  0.00e+000 0.00e+000   0
   1 1.7346108e+001 7.50e-001 2.37e+001  -0.3 7.22e-001    -  3.51e-001 1.00e+000f  1
   2 1.7922201e+001 7.70e-003 5.29e+000  -0.2 6.00e-002   2.0 9.96e-001 1.00e+000h  1
   3 1.7167308e+001 6.72e-002 1.66e+000  -0.8 1.37e+000    -  9.95e-001 6.98e-001f  1
   4 1.6989299e+001 1.02e-001 1.47e-001  -1.2 2.30e-001    -  9.92e-001 1.00e+000f  1
   5 1.6994402e+001 3.39e-002 1.19e-002  -2.3 8.69e-002    -  9.84e-001 1.00e+000h  1
   6 1.7013957e+001 2.20e-004 3.14e-004  -3.8 1.15e-002    -  9.99e-001 1.00e+000h  1
   7 1.7014017e+001 6.30e-007 1.31e-006  -9.7 3.43e-004    -  9.99e-001 9.99e-001h  1
   8 1.7014017e+001 5.54e-013 8.50e-013 -11.0 5.69e-007    -  1.00e+000 1.00e+000h  1

Number of Iterations....: 8

                                   (scaled)                 (unscaled)
Objective...............:  3.4028034280427242e+001   1.7014017140213621e+001
Dual infeasibility......:  8.5010828359312148e-013   4.2505414179656074e-013
Constraint violation....:  5.5422333389287814e-013   5.5422333389287814e-013
Complementarity.........:  1.1688338037729125e-011   5.8441690188645627e-012
Overall NLP error.......:  1.1688338037729125e-011   5.8441690188645627e-012


Number of objective function evaluations             = 9
Number of objective gradient evaluations             = 9
Number of equality constraint evaluations            = 9
Number of inequality constraint evaluations          = 9
Number of equality constraint Jacobian evaluations   = 9
Number of inequality constraint Jacobian evaluations = 9
Number of Lagrangian Hessian evaluations             = 8
Total CPU secs in IPOPT (w/o function evaluations)   =      0.017
Total CPU secs in NLP function evaluations           =      0.002

EXIT: Optimal Solution Found.
